20
 N1C1W2_A 
 100 50 0 
96
93
86
86
85
83
80
80
80
79
77
68
67
64
64
63
60
57
55
54
54
54
54
52
52
52
51
44
43
41
41
39
39
39
38
36
36
35
34
34
31
31
29
29
28
24
23
22
22
20
 N1C1W2_B 
 100 50 0 
99
96
95
95
91
91
91
90
89
86
85
85
84
79
76
69
68
68
65
64
63
58
58
54
53
52
50
49
48
48
45
45
43
42
36
35
33
31
31
30
30
30
29
27
27
26
22
22
22
21
 N1C1W2_C 
 100 50 0 
100
99
98
97
94
93
91
89
89
89
85
85
84
83
81
81
78
73
73
73
73
70
69
68
64
64
63
59
54
49
48
45
45
43
42
41
39
37
37
36
32
30
26
26
25
24
24
23
21
21
 N1C1W2_D 
 100 50 0 
97
97
90
89
89
89
85
83
82
81
77
76
76
75
71
71
68
68
66
63
63
63
62
61
61
59
58
54
53
50
50
50
46
43
40
36
36
33
32
31
31
31
28
27
27
26
26
24
23
22
 N1C1W2_E 
 100 50 0 
99
96
94
94
90
90
90
90
87
86
85
85
84
84
84
84
84
83
81
81
79
71
71
70
65
65
65
63
62
59
51
51
50
49
49
49
47
45
44
43
41
35
35
33
31
27
23
23
22
22
 N1C1W2_F 
 100 50 0 
99
94
94
89
88
86
86
85
84
84
83
79
77
76
74
73
71
71
66
65
63
62
60
54
53
50
49
48
48
48
48
43
41
40
40
39
38
35
34
32
31
29
28
25
23
23
22
21
20
20
 N1C1W2_G 
 100 50 0 
100
99
94
91
90
88
86
85
85
83
82
80
79
77
73
71
71
71
67
65
65
58
57
57
55
53
52
51
45
40
39
39
38
38
38
37
36
36
35
35
32
29
28
27
27
27
24
23
21
20
 N1C1W2_H 
 100 50 0 
100
100
96
95
95
92
92
92
91
90
90
89
89
86
84
83
81
78
76
73
73
73
71
71
67
66
61
60
59
57
54
54
44
42
42
38
36
33
31
31
28
28
27
27
27
27
26
25
21
20
 N1C1W2_I 
 100 50 0 
100
100
98
97
96
94
93
93
85
85
84
83
83
83
82
79
76
76
76
75
74
73
73
72
68
66
60
60
56
55
53
52
49
47
46
45
42
41
38
37
37
37
36
32
31
31
31
28
24
21
 N1C1W2_J 
 100 50 0 
100
99
98
95
93
90
87
85
84
84
83
83
81
81
80
79
75
75
71
70
68
67
63
63
62
62
61
58
56
51
51
50
49
48
48
42
40
39
37
37
36
34
32
30
29
28
28
27
26
26
 N1C1W2_K 
 100 50 0 
100
99
98
97
97
96
95
94
92
89
89
87
85
77
76
73
71
69
68
68
67
66
66
65
64
64
63
62
58
58
52
50
49
48
47
46
44
43
43
35
35
32
29
26
26
25
25
23
20
20
 N1C1W2_L 
 100 50 0 
98
95
94
93
92
91
89
88
87
87
84
82
82
74
73
73
72
69
65
64
63
63
62
62
60
59
57
54
54
52
48
47
46
44
43
41
35
33
30
30
30
29
29
28
28
27
27
26
24
23
 N1C1W2_M 
 100 50 0 
99
95
90
89
89
85
82
80
80
79
79
79
77
74
70
70
66
65
65
64
57
56
56
55
55
55
53
52
50
49
48
47
45
42
40
37
36
36
36
32
31
31
31
31
30
28
28
25
22
20
 N1C1W2_N 
 100 50 0 
98
96
95
85
84
84
83
82
81
80
78
76
76
74
72
72
71
71
69
66
65
64
64
62
61
60
56
53
52
52
49
48
47
45
43
43
42
40
40
40
39
37
32
30
28
26
21
21
21
20
 N1C1W2_O 
 100 50 0 
100
100
100
96
95
93
86
82
82
80
79
75
73
71
71
70
69
69
68
63
60
59
58
56
53
52
50
45
44
44
43
42
37
37
36
36
35
31
30
30
29
28
28
27
27
22
21
21
20
20
 N1C1W2_P 
 100 50 0 
100
96
95
95
95
93
92
87
87
83
83
82
79
78
77
76
76
76
72
71
69
69
68
64
63
60
57
55
54
54
51
50
46
42
41
40
40
38
38
37
31
30
30
29
28
27
26
26
22
20
 N1C1W2_Q 
 100 50 0 
97
96
96
93
93
93
91
88
86
86
85
85
85
82
81
78
75
74
71
71
69
67
67
65
65
65
64
61
61
60
58
58
56
54
53
49
45
44
43
40
38
38
38
34
33
31
30
26
23
23
 N1C1W2_R 
 100 50 0 
98
97
97
97
94
91
89
85
84
82
81
80
79
79
75
73
70
69
69
69
68
68
68
66
61
55
54
52
52
51
51
49
49
48
47
47
47
45
44
37
37
36
35
34
34
30
29
29
27
24
 N1C1W2_S 
 100 50 0 
99
99
98
96
95
93
92
91
91
91
88
86
84
84
84
80
80
79
78
77
76
76
73
72
71
71
69
68
67
64
64
61
59
58
54
52
49
49
41
40
38
31
31
29
28
27
27
27
22
20
 N1C1W2_T 
 100 50 0 
100
100
100
97
96
92
91
91
89
86
85
84
83
83
82
81
79
79
77
74
74
73
73
70
68
67
67
65
63
62
62
55
55
52
50
47
45
44
44
44
44
43
41
39
37
32
30
26
24
23
